c *********************************
c * Circuit generated by BenCGen
c *
c * CarrySaveAdder_3_3_3_3_4
c *
c * Ports with 1 gate(s): 2
c * Ports with 2 gate(s): 16
c * Total gates: 18
c *********************************
p cnf 27 58
1 18 0
-1 -18 0
1 -17 0
18 -17 0
-1 -18 17 0
17 -13 0
-17 13 0
1 4 -19 0
-1 4 19 0
1 -4 19 0
-1 -4 -19 0
19 7 -10 0
-19 7 10 0
19 -7 10 0
-19 -7 -10 0
7 -20 0
19 -20 0
-7 -19 20 0
4 -21 0
1 -21 0
-4 -1 21 0
-20 14 0
-21 14 0
20 21 -14 0
2 5 -22 0
-2 5 22 0
2 -5 22 0
-2 -5 -22 0
22 8 -11 0
-22 8 11 0
22 -8 11 0
-22 -8 -11 0
8 -23 0
22 -23 0
-8 -22 23 0
5 -24 0
2 -24 0
-5 -2 24 0
-23 15 0
-24 15 0
23 24 -15 0
3 6 -25 0
-3 6 25 0
3 -6 25 0
-3 -6 -25 0
25 9 -12 0
-25 9 12 0
25 -9 12 0
-25 -9 -12 0
9 -26 0
25 -26 0
-9 -25 26 0
6 -27 0
3 -27 0
-6 -3 27 0
-26 16 0
-27 16 0
26 27 -16 0
